\* Knapsack_Problem *\
Maximize
Sum_of_Knapsack_Value: 4 Quantity_A + 10 Quantity_B + 15 Quantity_C
 + 13 Quantity_D + 2 Quantity_E + 8 Quantity_F + 18 Quantity_G + Quantity_H
 + 5 Quantity_I + 9 Quantity_J
Subject To
Sum_of_Knapsack_Weight: 2 Quantity_A + 5 Quantity_B + 7 Quantity_C
 + 13 Quantity_D + Quantity_E + 4 Quantity_F + 9 Quantity_G + 2 Quantity_H
 + 7 Quantity_I + 6 Quantity_J <= 20
Bounds
 0 <= Quantity_A
 0 <= Quantity_B
 0 <= Quantity_C
 0 <= Quantity_D
 0 <= Quantity_E
 0 <= Quantity_F
 0 <= Quantity_G
 0 <= Quantity_H
 0 <= Quantity_I
 0 <= Quantity_J
Generals
Quantity_A
Quantity_B
Quantity_C
Quantity_D
Quantity_E
Quantity_F
Quantity_G
Quantity_H
Quantity_I
Quantity_J
End
